NAME: test72
TYPE: TSP
DIMENSION: 15
EDGE_WEIGHT_TYPE: EUC_2D
NODE_COORD_SECTION
1 53.079622415545835 25.452849177467417
2 94.78112198255863 72.74287411294907
3 28.337504481303267 29.436119913106808
4 74.96072360923327 22.675174538210875
5 15.875405472212512 9.917001292995009
6 13.145695201251462 35.37837395339529
7 42.445616241087855 87.0782779690698
8 83.29163797414752 79.3984949451192
9 31.79399682700865 18.360033232392624
10 86.70720830930011 26.551418656858495
11 20.08734151911219 70.11898930647232
12 33.36835635871614 98.16454989876262
13 58.51479879561368 59.22463955694736
14 74.40149385087463 28.960581963558653
15 67.24645260974899 3.062878640939215
EOF
